Route #1: 0 4 30 45 29 37 15 13 52 34 0
Route #2: 0 28 21 47 36 20 5 48 0
Route #3: 0 27 54 19 11 38 10 26 0
Route #4: 0 51 33 49 18 32 44 3 40 0
Route #5: 0 39 9 31 25 50 24 17 0
Route #6: 0 12 16 23 43 41 42 22 1 2 6 0
Route #7: 0 46 8 35 14 53 7 0
Cost 682:
